20
1 0 4
2 0 11
2 1 5
3 0 7
3 1 2
3 2 1
4 0 4
4 1 6
4 2 1
4 3 4
5 0 9
5 1 11
5 2 10
5 3 2
5 4 5
6 0 10
6 1 2
6 2 7
6 3 1
6 4 3
6 5 8
7 0 5
7 1 10
7 2 9
7 3 1
7 4 4
7 5 3
7 6 3
8 0 6
8 1 11
8 2 10
8 3 9
8 4 2
8 5 4
8 6 9
8 7 1
9 0 1
9 1 7
9 2 4
9 3 4
9 4 2
9 5 7
9 6 5
9 7 9
9 8 9
10 0 7
10 1 4
10 2 5
10 3 8
10 4 6
10 5 3
10 6 2
10 7 7
10 8 6
10 9 5
11 0 9
11 1 5
11 2 2
11 3 2
11 4 4
11 5 1
11 6 7
11 7 11
11 8 3
11 9 10
11 10 4
12 0 2
12 1 9
12 2 5
12 3 4
12 4 2
12 5 1
12 6 1
12 7 10
12 8 11
12 9 10
12 10 2
12 11 2
13 0 10
13 1 9
13 2 8
13 3 3
13 4 6
13 5 6
13 6 2
13 7 9
13 8 4
13 9 7
13 10 5
13 11 6
13 12 3
14 0 1
14 1 1
14 2 5
14 3 9
14 4 2
14 5 5
14 6 10
14 7 10
14 8 2
14 9 5
14 10 1
14 11 10
14 12 6
14 13 6
15 0 4
15 1 7
15 2 3
15 3 11
15 4 9
15 5 11
15 6 2
15 7 7
15 8 2
15 9 3
15 10 6
15 11 9
15 12 11
15 13 4
15 14 5
16 0 5
16 1 4
16 2 6
16 3 10
16 4 5
16 5 2
16 6 1
16 7 5
16 8 9
16 9 2
16 10 6
16 11 6
16 12 7
16 13 8
16 14 6
16 15 8
17 0 8
17 1 3
17 2 11
17 3 7
17 4 7
17 5 5
17 6 10
17 7 8
17 8 10
17 9 10
17 10 5
17 11 6
17 12 2
17 13 9
17 14 5
17 15 1
17 16 5
18 0 10
18 1 11
18 2 2
18 3 3
18 4 1
18 5 4
18 6 6
18 7 9
18 8 9
18 9 9
18 10 4
18 11 3
18 12 5
18 13 8
18 14 7
18 15 2
18 16 3
18 17 9
19 0 5
19 1 2
19 2 4
19 3 9
19 4 3
19 5 8
19 6 2
19 7 4
19 8 8
19 9 11
19 10 5
19 11 7
19 12 2
19 13 4
19 14 9
19 15 10
19 16 1
19 17 1
19 18 6
